NAME: tsp45_23
COMMENT: 45-tsp problem (Padberg/Rinaldi)
TYPE: TSP
DIMENSION: 45
EDGE_WEIGHT_TYPE : EUC_2D
NODE_COORD_SECTION
1 27 29
2 12 37
3 17 4
4 8 8
5 12 11
6 22 12
7 8 11
8 30 38
9 37 5
10 23 8
11 6 12
12 18 31
13 1 6
14 0 36
15 34 22
16 7 18
17 7 22
18 22 12
19 29 19
20 25 14
21 22 10
22 25 28
23 6 37
24 30 31
25 0 26
26 35 31
27 24 25
28 12 20
29 25 39
30 34 16
31 29 8
32 17 3
33 5 33
34 21 13
35 27 30
36 25 22
37 2 37
38 22 9
39 4 7
40 16 9
41 24 7
42 22 11
43 28 20
44 4 11
45 6 18
